;; sequence(s): A213065
;; terms: ~1 0 0 513 281474976378880
;; small program: loop2(x * y, y, loop(x * y, x, 1), 1, x) - loop2(x * y, y, x, 1, loop(x * y, x, 1))
;; fast program: loop(loop2(x * y, y, y - 1, x, x) * x, x - 1, x) - loop2(x * y, y, x, 1, loop(x * y, x - 1, x))
(set-logic UFNIA)
(declare-fun f0 (Int Int) Int)
(declare-fun g0 (Int Int) Int)
(declare-fun f1 (Int Int) Int)
(declare-fun g1 (Int) Int)
(declare-fun h1 () Int)
(declare-fun u1 (Int Int) Int)
(declare-fun v1 (Int) Int)
(declare-fun h0 (Int) Int)
(declare-fun i0 () Int)
(declare-fun j0 (Int) Int)
(declare-fun u0 (Int Int Int) Int)
(declare-fun v0 (Int Int Int) Int)
(declare-fun w0 (Int) Int)
(declare-fun f2 (Int Int) Int)
(declare-fun g2 (Int Int) Int)
(declare-fun h2 (Int) Int)
(declare-fun i2 () Int)
(declare-fun f3 (Int Int) Int)
(declare-fun g3 (Int) Int)
(declare-fun h3 () Int)
(declare-fun u3 (Int Int) Int)
(declare-fun v3 (Int) Int)
(declare-fun j2 (Int) Int)
(declare-fun u2 (Int Int Int) Int)
(declare-fun v2 (Int Int Int) Int)
(declare-fun w2 (Int) Int)
(declare-fun small (Int) Int)
(declare-fun f5 (Int Int) Int)
(declare-fun g5 (Int Int) Int)
(declare-fun h5 (Int Int) Int)
(declare-fun i5 (Int) Int)
(declare-fun j5 (Int) Int)
(declare-fun u5 (Int Int Int) Int)
(declare-fun v5 (Int Int Int) Int)
(declare-fun w5 (Int Int) Int)
(declare-fun f4 (Int Int) Int)
(declare-fun g4 (Int) Int)
(declare-fun h4 (Int) Int)
(declare-fun u4 (Int Int) Int)
(declare-fun v4 (Int) Int)
(declare-fun f6 (Int Int) Int)
(declare-fun g6 (Int Int) Int)
(declare-fun h6 (Int) Int)
(declare-fun i6 () Int)
(declare-fun f7 (Int Int) Int)
(declare-fun g7 (Int) Int)
(declare-fun h7 (Int) Int)
(declare-fun u7 (Int Int) Int)
(declare-fun v7 (Int) Int)
(declare-fun j6 (Int) Int)
(declare-fun u6 (Int Int Int) Int)
(declare-fun v6 (Int Int Int) Int)
(declare-fun w6 (Int) Int)
(declare-fun fast (Int) Int)
(assert (forall ((x Int) (y Int)) (= (f0 x y) (* x y))))
(assert (forall ((x Int) (y Int)) (= (g0 x y) y)))
(assert (forall ((x Int) (y Int)) (= (f1 x y) (* x y))))
(assert (forall ((x Int)) (= (g1 x) x)))
(assert (= h1 1))
(assert (forall ((x Int) (y Int)) (= (u1 x y) (ite (<= x 0) y (f1 (u1 (- x 1) y) x)))))
(assert (forall ((x Int)) (= (v1 x) (u1 (g1 x) h1))))
(assert (forall ((x Int)) (= (h0 x) (v1 x))))
(assert (= i0 1))
(assert (forall ((x Int)) (= (j0 x) x)))
(assert (forall ((x Int) (y Int) (z Int)) (= (u0 x y z) (ite (<= x 0) y (f0 (u0 (- x 1) y z) (v0 (- x 1) y z))))))
(assert (forall ((x Int) (y Int) (z Int)) (= (v0 x y z) (ite (<= x 0) z (g0 (u0 (- x 1) y z) (v0 (- x 1) y z))))))
(assert (forall ((x Int)) (= (w0 x) (u0 (h0 x) i0 (j0 x)))))
(assert (forall ((x Int) (y Int)) (= (f2 x y) (* x y))))
(assert (forall ((x Int) (y Int)) (= (g2 x y) y)))
(assert (forall ((x Int)) (= (h2 x) x)))
(assert (= i2 1))
(assert (forall ((x Int) (y Int)) (= (f3 x y) (* x y))))
(assert (forall ((x Int)) (= (g3 x) x)))
(assert (= h3 1))
(assert (forall ((x Int) (y Int)) (= (u3 x y) (ite (<= x 0) y (f3 (u3 (- x 1) y) x)))))
(assert (forall ((x Int)) (= (v3 x) (u3 (g3 x) h3))))
(assert (forall ((x Int)) (= (j2 x) (v3 x))))
(assert (forall ((x Int) (y Int) (z Int)) (= (u2 x y z) (ite (<= x 0) y (f2 (u2 (- x 1) y z) (v2 (- x 1) y z))))))
(assert (forall ((x Int) (y Int) (z Int)) (= (v2 x y z) (ite (<= x 0) z (g2 (u2 (- x 1) y z) (v2 (- x 1) y z))))))
(assert (forall ((x Int)) (= (w2 x) (u2 (h2 x) i2 (j2 x)))))
(assert (forall ((x Int)) (= (small x) (- (w0 x) (w2 x)))))
(assert (forall ((x Int) (y Int)) (= (f5 x y) (* x y))))
(assert (forall ((x Int) (y Int)) (= (g5 x y) y)))
(assert (forall ((x Int) (y Int)) (= (h5 x y) (- y 1))))
(assert (forall ((x Int)) (= (i5 x) x)))
(assert (forall ((x Int)) (= (j5 x) x)))
(assert (forall ((x Int) (y Int) (z Int)) (= (u5 x y z) (ite (<= x 0) y (f5 (u5 (- x 1) y z) (v5 (- x 1) y z))))))
(assert (forall ((x Int) (y Int) (z Int)) (= (v5 x y z) (ite (<= x 0) z (g5 (u5 (- x 1) y z) (v5 (- x 1) y z))))))
(assert (forall ((x Int) (y Int)) (= (w5 x y) (u5 (h5 x y) (i5 x) (j5 x)))))
(assert (forall ((x Int) (y Int)) (= (f4 x y) (* (w5 x y) x))))
(assert (forall ((x Int)) (= (g4 x) (- x 1))))
(assert (forall ((x Int)) (= (h4 x) x)))
(assert (forall ((x Int) (y Int)) (= (u4 x y) (ite (<= x 0) y (f4 (u4 (- x 1) y) x)))))
(assert (forall ((x Int)) (= (v4 x) (u4 (g4 x) (h4 x)))))
(assert (forall ((x Int) (y Int)) (= (f6 x y) (* x y))))
(assert (forall ((x Int) (y Int)) (= (g6 x y) y)))
(assert (forall ((x Int)) (= (h6 x) x)))
(assert (= i6 1))
(assert (forall ((x Int) (y Int)) (= (f7 x y) (* x y))))
(assert (forall ((x Int)) (= (g7 x) (- x 1))))
(assert (forall ((x Int)) (= (h7 x) x)))
(assert (forall ((x Int) (y Int)) (= (u7 x y) (ite (<= x 0) y (f7 (u7 (- x 1) y) x)))))
(assert (forall ((x Int)) (= (v7 x) (u7 (g7 x) (h7 x)))))
(assert (forall ((x Int)) (= (j6 x) (v7 x))))
(assert (forall ((x Int) (y Int) (z Int)) (= (u6 x y z) (ite (<= x 0) y (f6 (u6 (- x 1) y z) (v6 (- x 1) y z))))))
(assert (forall ((x Int) (y Int) (z Int)) (= (v6 x y z) (ite (<= x 0) z (g6 (u6 (- x 1) y z) (v6 (- x 1) y z))))))
(assert (forall ((x Int)) (= (w6 x) (u6 (h6 x) i6 (j6 x)))))
(assert (forall ((x Int)) (= (fast x) (- (v4 x) (w6 x)))))
(assert (exists ((c Int)) (and (>= c 0) (not (= (small c) (fast c))))))
(check-sat)
